p edge 15 43
1 2
1 3
1 14
2 3
2 6
2 14
3 10
3 1
3 4
4 5
4 11
5 6
5 2
5 11
6 9
6 7
7 10
7 8
7 9
8 1
8 9
8 2
9 14
9 8
9 10
10 11
10 13
10 5
11 13
11 6
11 12
12 13
12 7
12 9
13 15
13 3
13 14
14 11
14 15
14 7
15 13
15 1
15 11
